(set-info :origin "driver benchmark extracted from Microsoft SDV")
(set-logic HORN)
(declare-fun Proc6 (Int Int Bool Int Int) Bool)
(declare-fun Proc21 (Int Int Bool Int) Bool)
(declare-fun Proc9 (Int Int Bool) Bool)
(declare-fun Proc26 (Int Int Bool Int) Bool)
(declare-fun Proc23 (Int Int Bool Int) Bool)
(declare-fun Proc25 (Int Int Bool Int) Bool)
(declare-fun Proc24 (Int Int Bool Int) Bool)
(declare-fun Proc15 (Int Int Bool Int) Bool)
(declare-fun Proc11 (Int Int Bool Int) Bool)
(declare-fun Proc31 (Int Int Bool Int Int) Bool)
(declare-fun Proc33 (Int Int Bool Int Int Int Int Int) Bool)
(declare-fun Proc22 (Int Int Bool Int) Bool)
(declare-fun Proc34 (Int Int Bool) Bool)
(declare-fun Proc19 (Int Int Bool Int) Bool)
(declare-fun Proc0 (Int Int Bool Int) Bool)
(declare-fun Proc28 (Int Int Bool Int Int) Bool)
(declare-fun Proc20 (Int Int Bool Int) Bool)
(declare-fun Proc30 (Int Int Bool) Bool)
(declare-fun Proc27 (Int Int Bool Int) Bool)
(declare-fun Proc35 (Int Int Bool Int Bool Int Int) Bool)
(declare-fun Proc12 (Int Int Bool Int) Bool)
(declare-fun Proc16 (Int Int Bool Int) Bool)
(declare-fun Proc4 (Int Int Bool Int Int Int Int) Bool)
(declare-fun Proc7 (Int Int Bool Int Int Int Int) Bool)
(declare-fun Proc29 (Int Int Bool Int) Bool)
(declare-fun Proc1 (Int Int Bool Int) Bool)
(declare-fun Proc5 (Int Int Bool Int Int Int Int Int) Bool)
(declare-fun Proc3 (Int Int Bool Int Int) Bool)
(declare-fun Proc13 (Int Int Bool Int Int) Bool)
(declare-fun Proc17 (Int Int Bool Int) Bool)
(declare-fun Proc2 (Int Int Bool Int Int Int Int) Bool)
(declare-fun Proc8 (Int Int Bool Int Int Int Int) Bool)
(declare-fun Proc18 (Int Int Bool Int) Bool)
(declare-fun Proc32 (Int Int Bool Int) Bool)
(declare-fun Proc14 (Int Int Bool Int Int Bool Int) Bool)
(declare-fun Proc10 (Int Int Bool) Bool)
(assert (forall ((A Int)
         (B Int)
         (C Int)
         (D Int)
         (E Int)
         (F Int)
         (G Int)
         (H Int)
         (I Int)
         (J Int)
         (K Int)
         (L Int)
         (M Int)
         (N Bool))
  (let ((a!1 (or (not (= E F)) (not (and (= D G) (= C E)))))
        (a!2 (and (not (<= A (+ 1 B))) (not (<= A F)))))
  (let ((a!3 (or (not (= B F))
                 (not a!2)
                 (not (and (Proc3 A L N B G) (= E A)))
                 (not (and (= D G) (= C E))))))
  (let ((a!4 (not (or (not N)
                      (not (Proc0 M L N K))
                      (not (Proc1 M L N K))
                      (= J 0)
                      (= I 0)
                      (not (Proc2 M L N H K G F))
                      (and a!1 a!3)))))
    (=> a!4 (Proc4 M L N J K D C)))))))
(assert (forall ((A Int)
         (B Int)
         (C Int)
         (D Int)
         (E Int)
         (F Int)
         (G Int)
         (H Int)
         (I Int)
         (J Int)
         (K Int)
         (L Int)
         (M Int)
         (N Bool)
         (O Int)
         (P Int)
         (Q Int)
         (R Int)
         (S Int)
         (T Int)
         (U Int))
  (let ((a!1 (and (not (<= S (+ 4 U))) (not (<= S T))))
        (a!2 (or (not (Proc5 S Q N P R O U M)) (not (and (= L 259) (= K S)))))
        (a!4 (or (not (Proc5 S Q N J R I U H)) (not (and (= L 259) (= K S)))))
        (a!6 (or (not (Proc5 S Q N G R F U E)) (not (and (= L 259) (= K S)))))
        (a!8 (or (not (Proc5 S Q N D R C U B)) (not (and (= L 259) (= K S))))))
  (let ((a!3 (and a!2 (not (and (= L 259) (= K S)))))
        (a!5 (and a!4 (not (and (= L 259) (= K S)))))
        (a!7 (and a!6 (not (and (= L 259) (= K S)))))
        (a!9 (and a!8 (not (and (= L 259) (= K S))))))
  (let ((a!10 (or (not N)
                  (not (= U T))
                  (not a!1)
                  (and (or (= R 0) a!3)
                       (or (= R 0) a!5)
                       (or (= R 0) a!7)
                       (or (= R 0) a!9)))))
    (=> (not a!10) (Proc2 T Q N A R L K)))))))
(assert (forall ((A Int) (B Int) (C Int) (N Bool)) (=> N (Proc0 C B N A))))
(assert (forall ((A Int)
         (B Int)
         (C Int)
         (D Int)
         (E Int)
         (F Int)
         (G Int)
         (H Int)
         (I Int)
         (N Bool))
  (let ((a!1 (and (not (<= G (+ 1 I))) (not (<= G H)))))
  (let ((a!2 (or (not N)
                 (not (= I H))
                 (not a!1)
                 (not (Proc6 G F N I E))
                 (not (and (= D G) (= C E))))))
    (=> (not a!2) (Proc7 H F N B A D C))))))
(assert (forall ((A Int) (B Int) (C Int) (D Int) (N Bool))
  (let ((a!1 (not (or (not N) (not (= D 1))))))
    (=> a!1 (Proc6 C B N A D)))))
(assert (forall ((A Int) (B Int) (C Int) (D Int) (N Bool)) (=> N (Proc3 D C N B A))))
(assert (forall ((A Int)
         (B Int)
         (C Int)
         (D Int)
         (E Int)
         (F Int)
         (G Int)
         (H Int)
         (I Int)
         (J Int)
         (N Bool))
  (let ((a!1 (or (not (and (= J I) (= H G))) (not (and (= F H) (= E J)))))
        (a!2 (or (= D 0)
                 (not (and (= J I) (= H G)))
                 (not (and (= F H) (= E J)))))
        (a!3 (or (not (= A 1))
                 (not (and (= J A) (= H B)))
                 (not (and (= F H) (= E J)))))
        (a!4 (or (= A 1)
                 (not (and (= J A) (= H B)))
                 (not (and (= F H) (= E J))))))
  (let ((a!5 (and a!1
                  a!2
                  (or (not (= D 0)) (not (Proc7 G I N C D B A)) (and a!3 a!4)))))
    (=> (not (or (not N) a!5)) (Proc8 G I N C D F E))))))
(assert (forall ((A Int) (B Int) (N Bool)) (=> N (Proc9 B A N))))
(assert (forall ((A Int) (B Int) (N Bool)) (=> N (Proc10 B A N))))
(assert (forall ((A Int) (B Int) (C Int) (N Bool))
  (let ((a!1 (not (or (not N) (not (= C 0))))))
    (=> a!1 (Proc11 B A N C)))))
(assert (forall ((A Int)
         (B Int)
         (C Int)
         (D Int)
         (E Int)
         (F Int)
         (G Int)
         (H Int)
         (I Int)
         (J Int)
         (K Int)
         (L Int)
         (N Bool)
         (V Bool)
         (W Bool)
         (X Bool))
  (let ((a!1 (not (and (not (<= L 0)) (Proc12 L K X J))))
        (a!2 (not (and (= D F) (= C G) (= V W) (= B H)))))
  (let ((a!3 (or (= G 0) (not (and (= F E) (not W))) a!2))
        (a!4 (or (not (and (= G 0) (= N X))) (not (and (= F A) (= W N))) a!2)))
  (let ((a!5 (and (or (= G 1) (and a!3 a!4)) (or (not (= G 1)) (and a!3 a!4)))))
  (let ((a!6 (not (or (not X)
                      a!1
                      (not (Proc11 J K X I))
                      (not (Proc10 J I X))
                      (not (Proc9 J I X))
                      (not (Proc13 J I X H G))
                      a!5))))
    (=> a!6 (Proc14 L K X D C V B))))))))
(assert (forall ((A Int) (B Int) (C Int) (N Bool))
  (let ((a!1 (not (or (not N) (not (= C 1))))))
    (=> a!1 (Proc15 B A N C)))))
(assert (forall ((A Int) (B Int) (C Int) (N Bool))
  (let ((a!1 (not (or (not N) (not (= C 0))))))
    (=> a!1 (Proc16 B A N C)))))
(assert (forall ((A Int) (B Int) (C Int) (N Bool))
  (let ((a!1 (not (or (not N) (not (= C 1))))))
    (=> a!1 (Proc17 B A N C)))))
(assert (forall ((A Int) (B Int) (C Int) (N Bool))
  (let ((a!1 (not (or (not N) (not (= C 0))))))
    (=> a!1 (Proc18 B A N C)))))
(assert (forall ((A Int) (B Int) (C Int) (N Bool))
  (let ((a!1 (not (or (not N) (not (= C 1))))))
    (=> a!1 (Proc19 B A N C)))))
(assert (forall ((A Int) (B Int) (C Int) (N Bool))
  (let ((a!1 (not (or (not N) (not (= C 0))))))
    (=> a!1 (Proc20 B A N C)))))
(assert (forall ((A Int) (B Int) (C Int) (N Bool))
  (let ((a!1 (not (or (not N) (not (= C 0))))))
    (=> a!1 (Proc21 B A N C)))))
(assert (forall ((A Int) (B Int) (C Int) (N Bool))
  (let ((a!1 (not (or (not N) (not (= C 1))))))
    (=> a!1 (Proc22 B A N C)))))
(assert (forall ((A Int) (B Int) (C Int) (N Bool))
  (let ((a!1 (not (or (not N) (not (= C 0))))))
    (=> a!1 (Proc23 B A N C)))))
(assert (forall ((A Int) (B Int) (C Int) (N Bool))
  (let ((a!1 (not (or (not N) (not (= C 0))))))
    (=> a!1 (Proc24 B A N C)))))
(assert (forall ((A Int) (B Int) (C Int) (N Bool))
  (let ((a!1 (not (or (not N) (not (= C 0))))))
    (=> a!1 (Proc25 B A N C)))))
(assert (forall ((A Int) (B Int) (C Int) (D Int) (N Bool))
  (let ((a!1 (or (not N) (not (= D (- 1073741823))) (not (= C D)))))
    (=> (not a!1) (Proc26 B A N C)))))
(assert (forall ((A Int) (B Int) (C Int) (N Bool))
  (let ((a!1 (not (or (not N) (not (= C 0))))))
    (=> a!1 (Proc27 B A N C)))))
(assert (forall ((A Int) (B Int) (C Int) (N Bool)) (=> N (Proc1 C B N A))))
(assert (forall ((A Int)
         (B Int)
         (C Int)
         (D Int)
         (E Int)
         (F Int)
         (G Int)
         (H Int)
         (N Bool))
  (let ((a!1 (and (or (not (= H G)) (not (= F H)))
                  (or (not (= H E)) (not (= F H)))
                  (or (not (= H D)) (not (= F H))))))
    (=> (not (or (not N) a!1)) (Proc28 C B N A F)))))
(assert (forall ((A Int)
         (B Int)
         (C Int)
         (D Int)
         (E Int)
         (F Int)
         (G Int)
         (H Int)
         (I Int)
         (J Int)
         (K Int)
         (L Int)
         (M Int)
         (N Bool)
         (O Int)
         (P Int)
         (Q Int)
         (R Int)
         (S Int)
         (T Int)
         (U Int)
         (Y Int)
         (Z Int)
         (A1 Int)
         (B1 Int)
         (C1 Int)
         (D1 Int)
         (E1 Int)
         (F1 Int)
         (G1 Int)
         (H1 Int)
         (I1 Int)
         (J1 Int)
         (K1 Int)
         (L1 Int)
         (M1 Int)
         (N1 Int)
         (O1 Int)
         (P1 Int)
         (Q1 Int)
         (R1 Int))
  (let ((a!1 (not (and (= F1 G1) (= E1 I1) (= D1 H1))))
        (a!3 (and (not (<= B1 (+ 1 C1))) (not (<= B1 L1)))))
  (let ((a!2 (or (not (and (= K1 P1) (= J1 L1)))
                 (not (Proc31 J1 K1 N M1 R1))
                 (= R1 0)
                 (not (= I1 J1))
                 (not (and (= H1 K1) (= G1 M1)))
                 a!1))
        (a!4 (or (not (and (= Z 1) (= I1 A1) (= H1 Z) (= G1 Y))) a!1))
        (a!5 (or (= Z 1)
                 (not (and (= K1 Z) (= J1 A1)))
                 (not (Proc31 J1 K1 N M1 R1))
                 (= R1 0)
                 (not (= I1 J1))
                 (not (and (= H1 K1) (= G1 M1)))
                 a!1)))
  (let ((a!6 (and a!2
                  (or (not (= C1 L1))
                      (not a!3)
                      (not (Proc8 B1 P1 N C1 M1 A1 Z))
                      (and a!4 a!5)))))
  (let ((a!7 (or (= O1 0)
                 (not (Proc26 Q1 P1 N N1))
                 (not (and (= M1 N1) (= L1 Q1)))
                 a!6))
        (a!8 (or (= O1 0)
                 (not (Proc26 Q1 P1 N U))
                 (not (and (= M1 U) (= L1 Q1)))
                 a!6))
        (a!9 (or (= O1 0)
                 (not (Proc26 Q1 P1 N T))
                 (not (and (= M1 T) (= L1 Q1)))
                 a!6))
        (a!10 (or (= O1 0)
                  (not (Proc26 Q1 P1 N S))
                  (not (and (= M1 S) (= L1 Q1)))
                  a!6))
        (a!11 (or (= O1 0)
                  (not (Proc26 Q1 P1 N R))
                  (not (and (= M1 R) (= L1 Q1)))
                  a!6))
        (a!12 (or (= O1 0)
                  (not (Proc26 Q1 P1 N Q))
                  (not (and (= M1 Q) (= L1 Q1)))
                  a!6))
        (a!13 (or (= O1 0)
                  (not (Proc26 Q1 P1 N P))
                  (not (and (= M1 P) (= L1 Q1)))
                  a!6))
        (a!14 (or (not (Proc26 Q1 P1 N O)) (not (and (= M1 O) (= L1 Q1))) a!6))
        (a!15 (or (= O1 0)
                  (not (Proc26 Q1 P1 N M))
                  (not (and (= M1 M) (= L1 Q1)))
                  a!6))
        (a!16 (or (= O1 0)
                  (not (Proc26 Q1 P1 N L))
                  (not (and (= M1 L) (= L1 Q1)))
                  a!6))
        (a!17 (or (= O1 0)
                  (not (Proc26 Q1 P1 N K))
                  (not (and (= M1 K) (= L1 Q1)))
                  a!6))
        (a!18 (or (not (Proc26 Q1 P1 N J)) (not (and (= M1 J) (= L1 Q1))) a!6))
        (a!19 (or (= O1 0)
                  (not (Proc26 Q1 P1 N I))
                  (not (and (= M1 I) (= L1 Q1)))
                  a!6))
        (a!20 (or (= O1 0)
                  (not (Proc32 Q1 P1 N R1))
                  (not (Proc4 Q1 P1 N H R1 G F))
                  (not (and (= M1 G) (= L1 F)))
                  a!6))
        (a!21 (or (= O1 0)
                  (not (Proc26 Q1 P1 N E))
                  (not (and (= M1 E) (= L1 Q1)))
                  a!6))
        (a!22 (or (not (Proc26 Q1 P1 N D)) (not (and (= M1 D) (= L1 Q1))) a!6))
        (a!23 (or (= O1 0)
                  (not (Proc26 Q1 P1 N C))
                  (not (and (= M1 C) (= L1 Q1)))
                  a!6))
        (a!24 (or (not (= B 1))
                  (= B 0)
                  (= O1 0)
                  (not (Proc26 Q1 P1 N C))
                  (not (and (= M1 C) (= L1 Q1)))
                  a!6)))
  (let ((a!25 (and (or (= O1 0) (and a!23 a!24))
                   (or (not (= A 1)) (= A 0) (= O1 0) (and a!23 a!24)))))
  (let ((a!26 (or (not N)
                  (= R1 0)
                  (not (Proc29 Q1 P1 N R1))
                  (= O1 0)
                  (not (Proc30 Q1 P1 N))
                  (and a!7
                       a!8
                       a!9
                       a!10
                       a!11
                       a!12
                       a!13
                       a!14
                       a!15
                       a!16
                       a!17
                       a!18
                       a!19
                       a!20
                       a!21
                       a!22
                       (or (= O1 0) a!25)))))
    (=> (not a!26) (Proc33 Q1 P1 N H R1 F1 E1 D1))))))))))
(assert (forall ((A Int)
         (B Int)
         (C Int)
         (D Int)
         (E Int)
         (F Int)
         (G Int)
         (H Int)
         (N Bool))
  (let ((a!1 (not (or (not N) (not (Proc28 H G N F E)) (not (= D 0))))))
    (=> a!1 (Proc5 H G N C F B A D)))))
(assert (forall ((A Int) (B Int) (C Int) (D Int) (N Bool))
  (=> (not (or (not N) (= D 0) (= C 0))) (Proc32 B A N D))))
(assert (forall ((A Int) (B Int) (C Int) (N Bool))
  (=> (not (or (not N) (= C 0))) (Proc29 B A N C))))
(assert (forall ((A Int)
         (B Int)
         (C Int)
         (D Int)
         (E Int)
         (F Int)
         (G Int)
         (H Int)
         (I Int)
         (J Int)
         (K Int)
         (L Int)
         (M Int)
         (N Bool)
         (O Int)
         (P Int)
         (Q Int)
         (R Int)
         (S Int)
         (T Int)
         (U Int)
         (Y Int)
         (Z Int)
         (A1 Int))
  (let ((a!1 (or (not (and (= I Z) (= H A1))) (not (and (= G H) (= F I)))))
        (a!2 (or (not (= A 1))
                 (not (and (= I A) (= H B)))
                 (not (and (= G H) (= F I)))))
        (a!3 (or (= A 1)
                 (not (and (= I A) (= H B)))
                 (not (and (= G H) (= F I)))))
        (a!4 (or (not (= Y 0))
                 (not (and (= I Z) (= H A1)))
                 (not (and (= G H) (= F I))))))
  (let ((a!5 (and a!1
                  (or (= Y 0)
                      (not (Proc34 A1 Z N))
                      (not (Proc33 A1 Z N E D C B A))
                      (and a!2 a!3))
                  a!4)))
  (let ((a!6 (not (or (not N)
                      (not (Proc17 A1 Z N Y))
                      (not (Proc24 A1 Z N U))
                      (not (Proc18 A1 Z N T))
                      (not (Proc23 A1 Z N S))
                      (not (Proc16 A1 Z N R))
                      (not (Proc20 A1 Z N Q))
                      (not (Proc27 A1 Z N P))
                      (not (Proc25 A1 Z N O))
                      (not (Proc15 A1 Z N M))
                      (not (Proc21 A1 Z N L))
                      (not (Proc22 A1 Z N K))
                      (not (Proc19 A1 Z N J))
                      a!5))))
    (=> a!6 (Proc13 A1 Z N G F)))))))
(assert (forall ((A Int) (B Int) (N Bool)) (=> N (Proc30 B A N))))
(assert (forall ((A Int) (B Int) (C Int) (D Int) (N Bool)) (=> N (Proc31 D C N B A))))
(assert (forall ((A Int) (B Int) (N Bool)) (=> N (Proc34 B A N))))
(assert (forall ((A Int)
         (B Int)
         (C Int)
         (D Int)
         (E Int)
         (F Int)
         (G Int)
         (H Int)
         (I Int)
         (J Int)
         (K Int)
         (L Int)
         (M Int)
         (N Bool)
         (O Int)
         (P Int)
         (Q Int)
         (R Int)
         (S Int)
         (T Int)
         (U Int)
         (Y Int)
         (Z Int)
         (A1 Int)
         (B1 Int)
         (C1 Int)
         (D1 Int)
         (E1 Int)
         (F1 Int)
         (G1 Int)
         (H1 Int)
         (I1 Int)
         (J1 Int)
         (K1 Int)
         (L1 Int)
         (M1 Int)
         (N1 Int)
         (O1 Int)
         (P1 Int)
         (Q1 Int)
         (R1 Int)
         (S1 Int)
         (T1 Int)
         (U1 Int)
         (V1 Int)
         (W1 Int)
         (X1 Int)
         (Y1 Int)
         (Z1 Int)
         (A2 Int)
         (B2 Int)
         (C2 Int)
         (D2 Int)
         (E2 Int)
         (F2 Int)
         (G2 Int))
  (let ((a!1 (and (= G2 F2) (not (<= E2 (+ 240 G2)))))
        (a!2 (and (not (<= E2 F2))
                  (= D2 E2)
                  (not (<= C2 (+ 4 D2)))
                  (not (<= C2 E2))))
        (a!3 (and (= B2 C2)
                  (not (<= A2 (+ 332 B2)))
                  (not (<= A2 C2))
                  (= Z1 A2)
                  (not (<= Y1 (+ 4 Z1)))
                  (not (<= Y1 A2))
                  (= X1 Y1)
                  (not (<= W1 (+ 536 X1)))))
        (a!4 (and (not (<= W1 Y1))
                  (= V1 W1)
                  (not (<= U1 (+ 240 V1)))
                  (not (<= U1 W1))
                  (= T1 U1)
                  (not (<= S1 (+ 240 T1)))
                  (not (<= S1 U1))
                  (= R1 S1)
                  (not (<= Q1 (+ 536 R1)))
                  (not (<= Q1 S1))
                  (= P1 Q1)
                  (not (<= O1 (+ 240 P1)))
                  (not (<= O1 Q1))
                  (= N1 O1)
                  (not (<= M1 (+ 4 N1)))
                  (not (<= M1 O1))
                  (= L1 M1)
                  (not (<= K1 (+ 536 L1)))
                  (not (<= K1 M1))
                  (= J1 K1)
                  (not (<= I1 (+ 332 J1)))
                  (not (<= I1 K1))
                  (= H1 I1)
                  (not (<= G1 (+ 240 H1)))
                  (not (<= G1 I1))
                  (= F1 G1)
                  (not (<= E1 (+ 240 F1)))
                  (not (<= E1 G1))
                  (= D1 E1)
                  (not (<= C1 (+ 332 D1)))
                  (not (<= C1 E1))
                  (= B1 C1)
                  (not (<= A1 (+ 4 B1)))
                  (not (<= A1 C1))
                  (= Z A1)
                  (not (<= Y (+ 536 Z)))
                  (not (<= Y A1))
                  (= U Y)
                  (not (<= T (+ 240 U)))
                  (not (<= T Y))
                  (= S T)
                  (not (<= R (+ 240 S)))
                  (not (<= R T))
                  (= Q R)
                  (not (<= P (+ 240 Q)))
                  (not (<= P R))
                  (= O P)
                  (not (<= M (+ 240 O)))
                  (not (<= M P))
                  (= L M)
                  (not (<= K (+ 240 L)))
                  (not (<= K M))
                  (= J K)
                  (not (<= I (+ 40 J)))
                  (not (<= I K))
                  (= H I)
                  (not (<= G (+ 332 H)))
                  (not (<= G I))
                  (= F G)
                  (not (<= E (+ 4 F)))
                  (not (<= E G))
                  (= D E)
                  (not (<= C (+ 40 D)))
                  (not (<= C E)))))
  (let ((a!5 (not (or (not N)
                      (not a!1)
                      (not a!2)
                      (not a!3)
                      (not a!4)
                      (not (= B C))))))
    (=> a!5 (Proc12 F2 A N B))))))
(assert (forall ((A Int)
         (B Int)
         (C Int)
         (D Int)
         (E Int)
         (F Int)
         (G Int)
         (H Int)
         (N Bool)
         (V Bool)
         (W Bool))
  (let ((a!1 (or (not W) (not (and (Proc14 H G true F E V D) (not V))))))
    (=> (not a!1) (Proc35 H G W C N B A)))))
(assert (let ((a!1 (exists ((V0 Int)
                    (V1 Int)
                    (V2 Bool)
                    (V3 Int)
                    (V4 Bool)
                    (V5 Int)
                    (V6 Int))
             (not (=> (and (Proc35 V0 V1 V2 V3 V4 V5 V6) (not false)) false)))))
  (not a!1)))

(check-sat)
